proyfinal/src/viki/013/andrea/andrea-localstore/experimentInOfficeAgust.take6/worker_11/9efdca2f-ce6a-43b9-bf0e-5df9c9688e12.als.cnf.out
Reading from standard input... Use '--help' for help.
============================[ Problem Statistics ]=============================
|                                                                             |
|  Number of variables:         87638                                         |
|  Number of clauses:          161767                                         |
|  Parse time:                   0.04 s                                       |
|                                                                             |
============================[ Search Statistics ]==============================
| Conflicts |          ORIGINAL         |          LEARNT          | Progress |
|           |    Vars  Clauses Literals |    Limit  Clauses Lit/Cl |          |
===============================================================================
|       100 |   62720   106380   265856 |    39006      100      9 | 28.433 % |
|       250 |   62720   106380   265856 |    42906      250     40 | 28.433 % |
|       475 |   62720   106380   265856 |    47197      475     50 | 28.433 % |
|       812 |   62720   106380   265856 |    51916      812     66 | 28.433 % |
|      1318 |   62720   106380   265856 |    57108     1318     81 | 28.433 % |
|      2077 |   62720   106380   265856 |    62819     2077     77 | 28.433 % |
|      3216 |   62720   106380   265856 |    69101     3216     84 | 28.433 % |
|      4924 |   62719   106336   265766 |    76011     4923     79 | 28.434 % |
|      7486 |   62693   106193   265454 |    83612     6943     79 | 28.464 % |
|     11330 |   62693   106193   265454 |    91974    10787     80 | 28.464 % |
===============================================================================
restarts              : 63
conflicts             : 16665          (6739 /sec)
decisions             : 53448          (0.00 % random) (21613 /sec)
propagations          : 25032253       (10122250 /sec)
conflict literals     : 1187550        (53.61 % deleted)
Memory used           : 26.97 MB
CPU time              : 2.47299 s

UNSATISFIABLE
